70
    1    12    14
    2    24    18
    3    66    64
    4    70    63
    5    46    48
    6    47    44
    7     3     1
    8    45    48
    9    16     9
   10    45    40
   11    15     8
   12    35    33
   13    21    26
   14    60    66
   15    14    11
   16     5     1
   17    11    11
   18    10    16
   19     1     7
   20     6     8
   21    34    27
   22    16    14
   23     5     6
   24    57    51
   25    45    45
   26    27    32
   27    60    60
   28    63    66
   29    19    20
   30    19    21
   31    58    58
   32    43    50
   33    64    70
   34     6     7
   35    29    24
   36    61    59
   37    71    68
   38    32    33
   39    11    10
   40    34    39
   41    43    41
   42    56    52
   43    25    20
   44    48    54
   45    56    51
   46    74    67
   47    63    58
   48    29    26
   49    59    59
   50    61    68
   51    34    27
   52    23    22
   53    42    49
   54    60    64
   55    15    11
   56    63    58
   57    17    19
   58     5     1
   59    46    52
   60    58    54
   61    64    59
   62    53    47
   63    43    40
   64    48    43
   65    16    20
   66    15    20
   67    48    45
   68     7     5
   69    30    30
   70    25    30
71
